HUN,8,6,675
4,35,2,57,1,98,3,29,0,52,5,72
5,21,2,34,4,35,1,23,3,68,0,82
1,79,4,24,0,98,2,17,5,15,3,80
1,3,0,60,2,82,5,5,3,48,4,79
4,91,1,86,2,80,0,17,5,87,3,40
2,6,4,23,3,4,0,94,1,30,5,53
4,99,3,25,1,8,5,4,0,77,2,87
1,3,2,100,5,70,0,42,3,28,4,34
